81 2162 10 0 1439
2243 2355 3 367 410
435 2049 1 1316 1329
1870 988 2 1036 1120
386 1794 3 55 98
1768 747 2 707 787
926 2438 4 613 729
839 1810 4 1195 1292
501 750 4 620 675
583 442 4 418 429
2458 1184 4 1149 1189
